c Sudoku solution
p cnf 729 0
124 0
136 0
163 0
188 0
212 0
223 0
281 0
296 0
341 0
111 0
414 0
427 0
438 0
443 0
475 0
558 0
572 0
667 0
747 0
779 0
177 0
274 0
373 0
783 0
839 0
854 0
953 0
813 0
364 0
356 0
257 0
235 0
337 0
917 0
862 0
452 0
142 0
155 0
199 0
751 0
659 0
491 0
466 0
561 0
489 0
533 0
693 0
678 0
928 0
318 0
329 0
519 0
768 0
898 0
887 0
248 0
269 0
949 0
846 0
965 0
825 0
931 0
734 0
722 0
716 0
795 0
871 0
976 0
615 0
526 0
545 0
644 0
686 0
621 0
632 0
385 0
392 0
982 0
994 0
584 0
597 0
